NAME : kroD100-C-3-1-a__cluster__25251.tour
COMMENT : Length = 25251.000
COMMENT : Generated by compare_sota_instances.py for cluster
TYPE : TOUR
DIMENSION : 100
TOUR_SECTION
98
49
70
89
11
90
17
97
32
94
1
13
79
88
24
27
50
34
81
38
66
52
8
23
42
22
58
29
36
67
75
7
74
61
46
69
16
63
77
54
15
84
41
73
39
91
64
59
83
40
6
3
5
53
43
71
4
44
93
60
62
37
35
30
100
51
2
48
19
92
55
87
26
9
10
95
56
28
12
21
47
82
25
20
18
85
96
86
65
14
68
33
45
99
31
57
72
78
80
76
-1
EOF
